 vasp.6.4.3 19Mar24 (build Mar 01 2025 17:53:50) complex

 executed on              Shaheen date 2025.04.20  05:04:38

 INCAR:
   ISTART = 1            (Read existing wavefunction, if there)
   LREAL = .FALSE.       (Projection operators: automatic)
   ENCUT = 520        (Cut-off energy for plane wave basis set, in eV)
   PREC = Accurate   (Precision level: Normal or Accurate, set Accurate when perform structure lattice relaxation calculation)
   LWAVE = .FALSE.        (Write WAVECAR or not)
   LCHARG = .FALSE.        (Write CHGCAR or not)
   ADDGRID = .TRUE.        (Increase grid, helps GGA convergence)
   LASPH = .TRUE.        (Give more accurate total energies and band structure calculations)
   PREC = Accurate      (Accurate strictly avoids any aliasing or wrap around errors)
   ISMEAR = 0            (Gaussian smearing, metals:1)
   SIGMA = 0.05         (Smearing value in eV, metals:0.2)
   NELM = 90           (Max electronic SCF steps)
   NELMIN = 6            (Min electronic SCF steps)
   EDIFF = 1E-06        (SCF energy convergence, in eV)
   NSW = 300          (Max ionic steps)
   IBRION = 2            (Algorithm: 0-MD, 1-Quasi-New, 2-CG)
   ISIF = 2            (Stress/relaxation: 2-Ions, 3-Shape/Ions/V, 4-Shape/Ions)
   EDIFFG = -2E-02        (Ionic convergence, eV/AA)
   NCORE = 4
   ISPIN = 2
   MAGMOM = 27*1.0 72*0.6
   LDAU = .TRUE.        (Activate DFT+U)
   LDAUTYPE = 2            (Dudarev, only U-J matters)
   LDAUL = 3 -1         (Orbitals for each species)
   LDAUU = 5.0  0         (U for each species)
   LDAUJ = 0  0         (J for each species)
   LMAXMIX = 6            (Mixing cut-off, 4-d, 6-f)

 POTCAR:    PAW_PBE Ce 23Dec2003
 POTCAR:    PAW_PBE O 08Apr2002
|           W    W    AA    RRRRR   N    N  II  N    N   GGGG   !!!           |
|           W    W   A  A   R    R  NN   N  II  NN   N  G    G  !!!           |
|           W    W  A    A  R    R  N N  N  II  N N  N  G       !!!           |
|           W WW W  AAAAAA  RRRRR   N  N N  II  N  N N  G  GGG   !            |
|           WW  WW  A    A  R   R   N   NN  II  N   NN  G    G                |
|           W    W  A    A  R    R  N    N  II  N    N   GGGG   !!!           |
|     For optimal performance we recommend to set                             |
|       NCORE = 2 up to number-of-cores-per-socket                            |
|     This setting can greatly improve the performance of VASP for DFT.       |
|     The default, NCORE=1 might be grossly inefficient on modern             |
|     multi-core architectures or massively parallel machines. Do your        |
|     Unfortunately you need to use the default for GW and RPA                |
|     calculations (for HF NCORE is supported but not extensively tested      |
|     yet).                                                                   |

   TITEL  = PAW_PBE Ce 23Dec2003
   POMASS =  140.115; ZVAL   =   12.000    mass and valenz
   ENMAX  =  273.042; ENMIN  =  204.781 eV

   TITEL  = PAW_PBE O 08Apr2002
   POMASS =   16.000; ZVAL   =    6.000    mass and valenz
   ENMAX  =  400.000; ENMIN  =  300.000 eV

  PAW_PBE Ce 23Dec2003                  :
  PAW_PBE O 08Apr2002                   :

 POSCAR: Generated by VASPKIT code
  positions in direct lattice

 exchange-correlation table for PE
   RHO(1)=    0.500       N(1)  =     2000
   RHO(2)=  100.500       N(2)  =     4000

 ion  position               nearest neighbor table
   1  0.000  0.000  0.460-  81 2.37  33 2.37  47 2.37  31 2.37  95 2.37  97 2.37  29 2.37  34 2.37

   2  0.222  0.111  0.310-  78 2.37  42 2.37  38 2.37  66 2.37  34 2.37  30 2.37  35 2.37  31 2.37

[...]

  28  0.000  0.000  0.123-  21 2.37   3 2.37  27 2.37
  29  0.000  0.000  0.572-   1 2.37
  30  0.111  0.222  0.272-  11 2.37   8 2.37   2 2.37   3 2.37
  31  0.222  0.111  0.422-   4 2.37   1 2.37  13 2.37   2 2.37
  32  0.111  0.222  0.048-   3 2.37
  33  0.111  0.222  0.497-  10 2.37   1 2.37  13 2.37
  34  0.000  0.000  0.347-   8 2.37  26 2.37   2 2.37   1 2.37
  35  0.222  0.111  0.197-  21 2.37   6 2.37   3 2.37   2 2.37
  36  0.333  0.000  0.123-   6 2.37  21 2.37  24 2.37
  37  0.333  0.000  0.572-   4 2.37
  38  0.444  0.222  0.272-   2 2.37  14 2.37   6 2.37   5 2.37
  39  0.556  0.111  0.422-   7 2.37  16 2.37   5 2.37   4 2.37
  40  0.444  0.222  0.048-   6 2.37
  41  0.444  0.222  0.497-   4 2.37  13 2.37  16 2.37
  42  0.333  0.000  0.347-   2 2.37  20 2.37   4 2.37   5 2.37
  43  0.556  0.111  0.197-   9 2.37  24 2.37   5 2.37   6 2.37
  44  0.667  0.000  0.123-  27 2.37   9 2.37  24 2.37
  45  0.667  0.000  0.572-   7 2.37
  46  0.778  0.222  0.272-   8 2.37  17 2.37   5 2.37   9 2.37
  47  0.889  0.111  0.422-   7 2.37   1 2.37  10 2.37   8 2.37
  48  0.778  0.222  0.048-   9 2.37
  49  0.778  0.222  0.497-  16 2.37  10 2.37   7 2.37
  50  0.667  0.000  0.347-   8 2.37   5 2.37  23 2.37   7 2.37
  51  0.889  0.111  0.197-  27 2.37   9 2.37   3 2.37   8 2.37
  52  0.000  0.333  0.123-   3 2.37   9 2.37  12 2.37
  53  0.000  0.333  0.572-  10 2.37
  54  0.111  0.556  0.272-  20 2.37  17 2.37  12 2.37  11 2.37
  55  0.222  0.444  0.422-  13 2.37  10 2.37  11 2.37  22 2.37
  56  0.111  0.556  0.048-  12 2.37
  57  0.111  0.556  0.497-  19 2.37  22 2.37  10 2.37
  58  0.000  0.333  0.347-   8 2.37  11 2.37  17 2.37  10 2.37
  59  0.222  0.444  0.197-   3 2.37  15 2.37  11 2.37  12 2.37
  60  0.333  0.333  0.123-   3 2.37   6 2.37  15 2.37
  61  0.333  0.333  0.572-  13 2.37
  62  0.444  0.556  0.272-  23 2.37  11 2.37  15 2.37  14 2.37
  63  0.556  0.444  0.422-  16 2.37  14 2.37  25 2.37  13 2.37
  64  0.444  0.556  0.048-  15 2.37
  65  0.444  0.556  0.497-  22 2.37  25 2.37  13 2.37
  66  0.333  0.333  0.347-   2 2.37  11 2.37  13 2.37  14 2.37
  67  0.556  0.444  0.197-   6 2.37  18 2.37  14 2.37  15 2.37
  68  0.667  0.333  0.123-   9 2.37  18 2.37   6 2.37
  69  0.667  0.333  0.572-  16 2.37
  70  0.778  0.556  0.272-  26 2.37  14 2.37  18 2.37  17 2.37
  71  0.889  0.444  0.422-  16 2.37  10 2.37  17 2.37  19 2.37
  72  0.778  0.556  0.048-  18 2.37
  73  0.778  0.556  0.497-  19 2.37  25 2.37  16 2.37
  74  0.667  0.333  0.347-  17 2.37   5 2.37  14 2.37  16 2.37
  75  0.889  0.444  0.197-   9 2.37  12 2.37  17 2.37  18 2.37
  76  0.000  0.667  0.123-  12 2.37  21 2.37  18 2.37
  77  0.000  0.667  0.572-  19 2.37
  78  0.111  0.889  0.272-   2 2.37  26 2.37  20 2.37  21 2.37
  79  0.222  0.778  0.422-  22 2.37  19 2.37   4 2.37  20 2.37
  80  0.111  0.889  0.048-  21 2.37
  81  0.111  0.889  0.497-   1 2.37   4 2.37  19 2.37
  82  0.000  0.667  0.347-  26 2.37  20 2.37  19 2.37  17 2.37
  83  0.222  0.778  0.197-  12 2.37  24 2.37  21 2.37  20 2.37
  84  0.333  0.667  0.123-  24 2.37  12 2.37  15 2.37
  85  0.333  0.667  0.572-  22 2.37
  86  0.444  0.889  0.272-  20 2.37   5 2.37  24 2.37  23 2.37
  87  0.556  0.778  0.422-  25 2.37   7 2.37  23 2.37  22 2.37
  88  0.444  0.889  0.048-  24 2.37
  89  0.444  0.889  0.497-   4 2.37  22 2.37   7 2.37
  90  0.333  0.667  0.347-  20 2.37  22 2.37  11 2.37  23 2.37
  91  0.556  0.778  0.197-  27 2.37  15 2.37  23 2.37  24 2.37
  92  0.667  0.667  0.123-  27 2.37  18 2.37  15 2.37
  93  0.667  0.667  0.572-  25 2.37
  94  0.778  0.889  0.272-   8 2.37  26 2.37  23 2.37  27 2.37
  95  0.889  0.778  0.422-   1 2.37  19 2.37  25 2.37  26 2.37
  96  0.778  0.889  0.048-  27 2.37
  97  0.778  0.889  0.497-   7 2.37   1 2.37  25 2.37
  98  0.667  0.667  0.347-  23 2.37  26 2.37  25 2.37  14 2.37
  99  0.889  0.778  0.197-  18 2.37  27 2.37  21 2.37  26 2.37

  LATTYP: Found a hexagonal cell.
 ALAT       =    11.5982000000
 C/A-ratio  =     1.8147816040

  Lattice vectors:

 A1 = (  11.5982000000,   0.0000000000,   0.0000000000)
 A2 = (  -5.7991000000,  10.0443358382,   0.0000000000)
 A3 = (   0.0000000000,   0.0000000000,  21.0482000000)

Analysis of symmetry for initial positions (statically):
 Subroutine PRICEL returns:
 Original cell was already a primitive cell.

 Routine SETGRP: Setting up the symmetry group for a
 hexagonal supercell.

 Subroutine GETGRP returns: Found  2 space group operations
 (whereof  2 operations were pure point group operations)
 out of a pool of 24 trial point group operations.

The static configuration has the point symmetry C_1h.

Analysis of symmetry for dynamics (positions and initial velocities):
 Subroutine PRICEL returns:
 Original cell was already a primitive cell.

[...]

The dynamic configuration has the point symmetry C_1h.

Analysis of constrained symmetry for selective dynamics:
 Subroutine PRICEL returns:
 Original cell was already a primitive cell.

[...]

The constrained configuration has the point symmetry C_1h.

Analysis of structural, dynamic, and magnetic symmetry:
 Subroutine PRICEL returns:
 Original cell was already a primitive cell.

 Routine SETGRP: Setting up the symmetry group for a
 hexagonal supercell.

 Subroutine GETGRP returns: Found  2 space group operations
 (whereof  2 operations were pure point group operations)
 out of a pool of 24 trial point group operations.

The overall configuration has the point symmetry C_1h.

 Subroutine INISYM returns: Found  2 space group operations
 (whereof  2 operations are pure point group operations),
 and found     1 'primitive' translations

                                     Primitive cell

  volume of cell :    2452.0357

  direct lattice vectors                    reciprocal lattice vectors
    11.598200000  0.000000000  0.000000000     0.086220276  0.049779299  0.000000000
    -5.799100000 10.044335838  0.000000000     0.000000000  0.099558599  0.000000000
     0.000000000  0.000000000 21.048200000     0.000000000  0.000000000  0.047510001

  length of vectors
    11.598200000 11.598200000 21.048200000     0.099558599  0.099558599  0.047510001

  position of ions in fractional coordinates (direct lattice)
     0.000000000  0.000000000  0.459930000
     0.222220000  0.111110000  0.309960000
     0.111110000  0.222220000  0.159990000
     0.333330000  0.000000000  0.459930000
     0.555560000  0.111110000  0.309960000
     0.444440000  0.222220000  0.159990000
     0.666670000  0.000000000  0.459930000
     0.888890000  0.111110000  0.309960000
     0.777780000  0.222220000  0.159990000
     1.000000000  0.333330000  0.459930000
     0.222220000  0.444440000  0.309960000
     0.111110000  0.555560000  0.159990000
     0.333330000  0.333330000  0.459930000
     0.555560000  0.444440000  0.309960000
     0.444440000  0.555560000  0.159990000
     0.666670000  0.333330000  0.459930000
     0.888890000  0.444440000  0.309960000
     0.777780000  0.555560000  0.159990000
     1.000000000  0.666670000  0.459930000
     0.222220000  0.777780000  0.309960000
     0.111110000  0.888890000  0.159990000
     0.333330000  0.666670000  0.459930000
     0.555560000  0.777780000  0.309960000
     0.444440000  0.888890000  0.159990000
     0.666670000  0.666670000  0.459930000
     0.888890000  0.777780000  0.309960000
     0.777780000  0.888890000  0.159990000
     0.000000000  0.000000000  0.122500000
     0.000000000  0.000000000  0.572410000
     0.111110000  0.222220000  0.272470000
     0.222220000  0.111110000  0.422440000
     0.111110000  0.222220000  0.047510000
[...]

 FORCES acting on ions
    electron-ion (+dipol)            ewald-force                    non-local-force                 convergence-correction
   0.709E-02 -.409E-02 -.187E+04   -.704E-02 0.407E-02 0.187E+04   -.231E-03 0.134E-03 -.711E+00   0.223E-06 -.129E-06 -.675E-04
   -.735E-02 0.626E-03 -.166E+00   0.722E-02 -.731E-03 0.219E+00   0.107E-03 -.263E-03 -.472E-01   0.106E-06 -.725E-07 0.579E-04
   -.444E-02 -.206E-01 0.187E+04   0.438E-02 0.208E-01 -.187E+04   0.135E-04 -.195E-05 0.671E+00   0.201E-06 0.490E-06 0.865E-05
   -.227E-01 -.176E-01 -.187E+04   0.230E-01 0.178E-01 0.187E+04   0.182E-03 0.327E-03 -.711E+00   -.103E-05 -.731E-06 -.685E-04
   0.102E-01 0.117E-01 -.145E+00   -.102E-01 -.116E-01 0.197E+00   -.205E-03 -.615E-03 -.463E-01   -.329E-06 -.464E-06 0.574E-04
   -.261E-01 -.235E-01 0.187E+04   0.255E-01 0.238E-01 -.187E+04   0.114E-02 -.459E-04 0.671E+00   -.427E-06 0.194E-06 0.879E-05
   0.188E-01 0.568E-03 -.187E+04   -.190E-01 -.832E-03 0.187E+04   -.125E-03 0.268E-03 -.711E+00   0.592E-06 -.279E-06 -.673E-04
   -.414E-02 0.239E-02 -.170E+00   0.416E-02 -.240E-02 0.222E+00   0.311E-03 -.180E-03 -.467E-01   0.407E-06 -.235E-06 0.576E-04
   0.160E-01 -.926E-02 0.187E+04   -.162E-01 0.935E-02 -.187E+04   -.255E-04 0.147E-04 0.671E+00   0.140E-06 -.805E-07 0.900E-05
   0.891E-02 -.166E-01 -.187E+04   -.880E-02 0.169E-01 0.187E+04   -.295E-03 -.262E-04 -.711E+00   0.537E-06 -.373E-06 -.673E-04
   -.823E-02 -.164E-01 -.141E+00   0.803E-02 0.163E-01 0.194E+00   0.220E-03 0.402E-03 -.469E-01   0.763E-07 -.399E-07 0.575E-04
   -.133E-01 0.230E-01 0.187E+04   0.128E-01 -.226E-01 -.187E+04   0.644E-03 -.981E-03 0.671E+00   -.715E-07 -.525E-07 0.860E-05
   -.203E-01 -.303E-01 -.187E+04   0.207E-01 0.309E-01 0.187E+04   0.111E-03 0.153E-03 -.711E+00   -.117E-05 -.155E-05 -.678E-04
   0.973E-02 -.562E-02 -.120E+00   -.977E-02 0.564E-02 0.172E+00   -.106E-03 0.611E-04 -.461E-01   -.181E-06 0.105E-06 0.568E-04
   -.351E-01 0.203E-01 0.187E+04   0.341E-01 -.197E-01 -.187E+04   0.177E-02 -.102E-02 0.671E+00   0.415E-06 -.239E-06 0.878E-05
   0.213E-01 -.123E-01 -.187E+04   -.214E-01 0.124E-01 0.187E+04   -.199E-03 0.115E-03 -.711E+00   0.381E-06 -.220E-06 -.666E-04
   -.504E-02 -.147E-01 -.145E+00   0.498E-02 0.146E-01 0.197E+00   0.430E-03 0.485E-03 -.463E-01   0.237E-06 0.517E-06 0.574E-04
   0.729E-02 0.344E-01 0.187E+04   -.784E-02 -.340E-01 -.187E+04   0.610E-03 -.964E-03 0.671E+00   -.381E-06 0.273E-06 0.879E-05
   0.391E-02 0.284E-01 -.187E+04   -.392E-02 -.288E-01 0.187E+04   -.193E-03 -.321E-03 -.711E+00   0.117E-06 0.126E-05 -.685E-04
   -.698E-02 0.403E-02 -.163E+00   0.685E-02 -.396E-02 0.215E+00   0.612E-04 -.353E-04 -.478E-01   -.123E-06 0.708E-07 0.579E-04
   -.482E-02 0.278E-02 0.187E+04   0.477E-02 -.275E-02 -.187E+04   0.458E-04 -.264E-04 0.671E+00   0.157E-06 -.909E-07 0.853E-05
   -.256E-01 0.148E-01 -.187E+04   0.260E-01 -.150E-01 0.187E+04   0.192E-03 -.111E-03 -.711E+00   -.935E-06 0.540E-06 -.682E-04
   0.101E-01 0.153E-01 -.141E+00   -.101E-01 -.151E-01 0.194E+00   -.238E-03 -.391E-03 -.469E-01   0.728E-07 -.462E-07 0.575E-04
   -.266E-01 -.364E-04 0.187E+04   0.260E-01 0.200E-03 -.187E+04   0.117E-02 -.676E-04 0.671E+00   0.977E-08 0.882E-07 0.860E-05
   0.161E-01 0.327E-01 -.187E+04   -.164E-01 -.334E-01 0.187E+04   -.774E-04 -.173E-03 -.711E+00   0.760E-06 0.179E-05 -.678E-04
   -.422E-02 0.605E-02 -.166E+00   0.424E-02 -.589E-02 0.219E+00   0.282E-03 0.386E-04 -.472E-01   0.116E-06 -.554E-07 0.579E-04
   0.156E-01 0.142E-01 0.187E+04   -.158E-01 -.142E-01 -.187E+04   0.845E-05 -.107E-04 0.671E+00   -.324E-06 -.419E-06 0.865E-05
   0.727E-03 -.420E-03 0.121E+04   -.763E-03 0.440E-03 -.122E+04   0.679E-04 -.392E-04 0.723E+01   0.180E-06 -.104E-06 -.109E-04
   0.102E-02 -.591E-03 -.140E+04   -.936E-03 0.540E-03 0.141E+04   -.117E-03 0.676E-04 -.125E+02   -.130E-06 0.748E-07 -.112E-04
   -.193E-02 -.292E-02 0.238E+03   0.192E-02 0.262E-02 -.239E+03   -.130E-04 0.388E-03 0.588E+00   -.517E-07 -.305E-06 0.114E-04
   -.369E-02 0.217E-02 -.698E+03   0.402E-02 -.236E-02 0.698E+03   -.495E-03 -.138E-03 0.437E+00   -.670E-07 -.128E-06 -.107E-04
   -.966E-03 -.817E-02 0.140E+04   0.985E-03 0.816E-02 -.141E+04   -.477E-04 0.304E-04 0.124E+02   0.162E-06 0.108E-06 -.332E-04
   0.131E-02 0.141E-02 -.121E+04   -.139E-02 -.151E-02 0.122E+04   -.132E-04 -.201E-03 -.770E+01   -.346E-07 0.151E-06 -.192E-04
   0.350E-02 -.202E-02 -.242E+03   -.376E-02 0.217E-02 0.243E+03   0.157E-03 -.904E-04 -.638E+00   -.896E-07 0.517E-07 -.479E-05
   -.435E-02 -.537E-02 0.700E+03   0.412E-02 0.515E-02 -.700E+03   0.357E-03 0.331E-03 -.142E+00   -.188E-06 -.856E-07 0.999E-05
   -.923E-02 -.650E-02 0.121E+04   0.896E-02 0.648E-02 -.122E+04   0.497E-03 0.109E-03 0.723E+01   -.255E-06 -.371E-06 -.110E-04
   -.114E-01 -.767E-02 -.140E+04   0.109E-01 0.772E-02 0.141E+04   0.451E-03 0.107E-04 -.125E+02   0.138E-07 0.101E-08 -.107E-04
   -.803E-04 -.209E-02 0.238E+03   -.197E-03 0.183E-02 -.239E+03   0.382E-03 0.411E-03 0.587E+00   -.354E-06 -.249E-06 0.116E-04
   0.610E-02 0.718E-02 -.698E+03   -.647E-02 -.757E-02 0.698E+03   0.311E-03 0.907E-04 0.437E+00   0.186E-06 -.208E-07 -.106E-04
   -.727E-02 -.120E-01 0.140E+04   0.720E-02 0.119E-01 -.141E+04   0.102E-03 0.147E-03 0.124E+02   -.238E-06 -.856E-07 -.333E-04
   -.846E-02 -.609E-02 -.121E+04   0.889E-02 0.618E-02 0.122E+04   -.453E-03 -.382E-03 -.770E+01   0.197E-06 0.364E-06 -.188E-04
   -.906E-02 -.946E-02 -.242E+03   0.960E-02 0.101E-01 0.243E+03   -.497E-03 -.539E-03 -.638E+00   -.260E-06 0.220E-07 -.478E-05
   0.901E-02 -.775E-02 0.700E+03   -.922E-02 0.853E-02 -.700E+03   -.285E-03 -.789E-03 -.140E+00   -.106E-06 -.228E-06 0.101E-04
   0.179E-01 0.123E-01 0.121E+04   -.187E-01 -.130E-01 -.122E+04   0.590E-03 0.606E-03 0.723E+01   0.982E-07 -.373E-06 -.109E-04
   0.988E-02 0.362E-02 -.140E+04   -.936E-02 -.357E-02 0.141E+04   -.465E-03 -.155E-04 -.125E+02   0.271E-06 0.201E-07 -.108E-04
   0.283E-02 -.163E-02 0.238E+03   -.280E-02 0.162E-02 -.239E+03   -.772E-04 0.445E-04 0.588E+00   0.202E-06 -.117E-06 0.116E-04
   -.439E-02 0.253E-02 -.698E+03   0.474E-02 -.273E-02 0.698E+03   -.993E-04 0.573E-04 0.437E+00   0.201E-06 -.116E-06 -.106E-04
   0.685E-02 -.395E-02 0.140E+04   -.684E-02 0.395E-02 -.141E+04   -.363E-04 0.210E-04 0.124E+02   0.936E-07 -.540E-07 -.334E-04
   -.410E-02 0.237E-02 -.121E+04   0.445E-02 -.257E-02 0.122E+04   -.962E-04 0.555E-04 -.770E+01   -.258E-06 0.149E-06 -.187E-04
   0.793E-02 0.339E-03 -.242E+03   -.838E-02 -.257E-03 0.243E+03   0.453E-03 0.683E-04 -.639E+00   0.856E-07 0.519E-07 -.468E-05
   0.213E-02 -.123E-02 0.700E+03   -.196E-02 0.113E-02 -.700E+03   -.244E-03 0.141E-03 -.141E+00   0.132E-06 -.761E-07 0.101E-04
   -.171E-02 -.216E-01 0.121E+04   0.193E-02 0.227E-01 -.122E+04   -.230E-03 -.814E-03 0.723E+01   0.372E-06 0.101E-06 -.109E-04
   0.180E-02 -.104E-01 -.140E+04   -.158E-02 0.989E-02 0.141E+04   -.219E-03 0.410E-03 -.125E+02   0.118E-06 -.245E-06 -.108E-04
   -.306E-02 0.120E-05 0.238E+03   0.313E-02 0.561E-04 -.239E+03   -.116E-03 -.167E-03 0.587E+00   -.150E-06 0.864E-07 0.114E-04
   -.246E-02 -.910E-02 -.698E+03   0.260E-02 0.961E-02 0.698E+03   -.315E-03 -.492E-03 0.437E+00   -.216E-07 -.614E-06 -.107E-04
   -.107E-02 0.808E-02 0.140E+04   0.113E-02 -.797E-02 -.141E+04   -.876E-04 -.153E-03 0.124E+02   0.377E-07 0.617E-07 -.332E-04
   0.607E-02 0.949E-02 -.121E+04   -.635E-02 -.981E-02 0.122E+04   0.184E-03 0.329E-03 -.770E+01   -.169E-06 -.424E-06 -.191E-04
   0.367E-02 -.704E-02 -.242E+03   -.397E-02 0.738E-02 0.243E+03   0.168E-03 -.427E-03 -.639E+00   -.216E-08 -.100E-06 -.468E-05
   0.465E-02 -.802E-02 0.700E+03   -.584E-02 0.769E-02 -.700E+03   0.114E-02 0.825E-03 -.141E+00   0.876E-07 -.225E-06 0.991E-05
   -.117E-01 -.277E-01 0.121E+04   0.117E-01 0.288E-01 -.122E+04   0.200E-03 -.669E-03 0.723E+01   -.235E-06 -.519E-08 -.109E-04
[...]
   -.153E-02 0.265E-02 0.238E+03   0.152E-02 -.274E-02 -.239E+03   0.870E-04 0.184E-03 0.587E+00   -.150E-06 0.871E-07 0.114E-04
   0.665E-02 0.668E-02 -.698E+03   -.702E-02 -.705E-02 0.698E+03   0.269E-03 0.519E-03 0.437E+00   0.521E-06 0.326E-06 -.107E-04
   -.753E-02 -.311E-02 0.140E+04   0.747E-02 0.301E-02 -.141E+04   0.884E-04 0.152E-03 0.124E+02   -.346E-07 -.635E-07 -.332E-04
   -.518E-02 -.100E-01 -.121E+04   0.532E-02 0.104E-01 0.122E+04   -.193E-03 -.323E-03 -.770E+01   0.283E-06 0.359E-06 -.191E-04
   -.898E-02 0.518E-02 -.242E+03   0.947E-02 -.547E-02 0.243E+03   -.456E-03 0.263E-03 -.638E+00   -.144E-06 0.833E-07 -.498E-05
   0.927E-02 -.172E-04 0.700E+03   -.958E-02 0.121E-02 -.700E+03   -.144E-03 -.140E-02 -.141E+00   0.238E-06 0.365E-07 0.991E-05
   0.182E-01 0.240E-01 0.121E+04   -.191E-01 -.245E-01 -.122E+04   0.679E-03 0.162E-03 0.723E+01   -.113E-06 0.206E-06 -.109E-04
   0.104E-01 0.178E-01 -.140E+04   -.102E-01 -.173E-01 0.141E+04   -.157E-03 -.482E-03 -.125E+02   0.256E-06 0.120E-06 -.104E-04
   0.157E-02 0.313E-02 0.238E+03   -.131E-02 -.298E-02 -.239E+03   -.342E-03 -.183E-03 0.588E+00   0.238E-06 0.197E-06 0.114E-04
   -.372E-02 0.211E-02 -.698E+03   0.405E-02 -.230E-02 0.698E+03   -.128E-03 0.497E-03 0.437E+00   0.771E-07 0.122E-06 -.107E-04
   0.659E-02 0.492E-02 0.140E+04   -.658E-02 -.493E-02 -.141E+04   -.501E-04 0.261E-04 0.124E+02   -.120E-07 -.195E-06 -.332E-04
   -.567E-03 -.184E-02 -.121E+04   0.612E-03 0.196E-02 0.122E+04   0.167E-03 0.112E-03 -.770E+01   -.148E-06 -.456E-07 -.192E-04
   0.805E-02 0.151E-01 -.242E+03   -.855E-02 -.160E-01 0.243E+03   0.512E-03 0.874E-03 -.639E+00   0.150E-06 0.270E-06 -.471E-05
   0.247E-02 0.646E-02 0.700E+03   -.240E-02 -.615E-02 -.700E+03   -.108E-03 -.475E-03 -.142E+00   -.198E-07 0.206E-06 0.999E-05
   -.103E-01 0.596E-02 0.330E+01   0.720E-12 0.616E-12 0.148E-11   0.103E-01 -.596E-02 -.330E+01   -.120E-06 0.695E-07 -.623E-03

 POSITION                                       TOTAL-FORCE (eV/Angst)
     -5.79909     10.04433      9.77505        -0.000183      0.000106      0.016545
      1.93303      1.11605      6.56724        -0.000020     -0.000369      0.005159
     -0.00000      2.23205      3.36750        -0.000041      0.000151      0.023455
     -1.93304     10.04430      9.77504         0.000519      0.000537      0.016622
      5.79911      1.11606      6.56717        -0.000169     -0.000526      0.005933
      3.86603      2.23205      3.36750         0.000549      0.000244      0.023279
      1.93304     10.04433      9.77505        -0.000363      0.000004      0.016509
      9.66515      1.11605      6.56722         0.000330     -0.000191      0.005493
      7.73217      2.23205      3.36750        -0.000180      0.000104      0.023100
     -1.93302      3.34811      9.77505        -0.000185      0.000312      0.016509
     -0.00000      4.46412      6.56719         0.000014      0.000237      0.005581
     -1.93307      5.58023      3.36750         0.000208     -0.000552      0.023633
      1.93303      3.34809      9.77503         0.000516      0.000743      0.016601
      3.86609      4.46414      6.56713        -0.000152      0.000088      0.006342
      1.93296      5.58023      3.36750         0.000797     -0.000460      0.023463
      5.79911      3.34811      9.77504        -0.000372      0.000215      0.016483
      7.73212      4.46413      6.56717         0.000371      0.000409      0.005933
      5.79910      5.58023      3.36750         0.000063     -0.000597      0.023279
     -3.86604      6.69625      9.77504        -0.000206     -0.000718      0.016622
     -1.93303      7.81226      6.56726        -0.000066      0.000038      0.004820
     -3.86609      8.92831      3.36750        -0.000009      0.000005      0.023811
      0.00001      6.69622      9.77503         0.000499     -0.000288      0.016708
      1.93305      7.81227      6.56719        -0.000198     -0.000131      0.005581
     -0.00006      8.92831      3.36750         0.000582      0.000096      0.023633
      3.86608      6.69624      9.77503        -0.000386     -0.000818      0.016601
      5.79909      7.81226      6.56724         0.000309      0.000202      0.005159
      3.86609      8.92831      3.36750        -0.000151     -0.000040      0.023455
      0.00000      0.00000      2.57840         0.000032     -0.000019     -0.218358
     -5.79908     10.04432     12.14004        -0.000030      0.000017      0.011019
     -0.00001      2.23205      5.77164        -0.000017      0.000082     -0.016830
      1.93304      1.11605      8.96661        -0.000165     -0.000328      0.012801
     -0.00000      2.23205      1.00000        -0.000029      0.000022     -0.039272
      0.00000      2.23209     10.60099        -0.000092     -0.000298     -0.006400
     -5.79910     10.04433      7.36933        -0.000100      0.000058      0.003410
      1.93301      1.11603      4.15660         0.000126      0.000110      0.208314
      3.86603      0.00000      2.57840         0.000235      0.000088     -0.218191
     -1.93313     10.04433     12.14002        -0.000023      0.000064      0.011010
      3.86606      2.23203      5.77162         0.000104      0.000153     -0.016973
      5.79911      1.11606      8.96661        -0.000057     -0.000303      0.012648
      3.86603      2.23205      1.00000         0.000027      0.000051     -0.039173
      3.86606      2.23208     10.60096        -0.000021     -0.000290     -0.006299
     -1.93303     10.04432      7.36932         0.000045      0.000146      0.003311
      5.79916      1.11603      4.15660        -0.000492     -0.000007      0.208220
      7.73217      0.00000      2.57840        -0.000274     -0.000146     -0.218283
      7.73224      0.00002     12.14002         0.000054      0.000035      0.011084
      7.73216      2.23206      5.77165        -0.000049      0.000028     -0.016907
      9.66513      1.11606      8.96663         0.000251     -0.000145      0.012727
      7.73217      2.23205      1.00000        -0.000030      0.000017     -0.039193
      7.73210      2.23209     10.60099         0.000247     -0.000143     -0.006218
      1.93303     10.04432      7.36931         0.000011      0.000150      0.003095
      9.66519      1.11603      4.15660        -0.000071      0.000041      0.208409
     -1.93301      3.34808      2.57840        -0.000010      0.000311     -0.218283
      9.66521      3.34801     12.14002        -0.000003     -0.000064      0.011084
     -1.93303      5.58020      5.77161        -0.000052     -0.000110     -0.016895
      0.00002      4.46412      8.96659        -0.000181      0.000019      0.012725
     -1.93307      5.58023      1.00000        -0.000030     -0.000045     -0.039252
     -1.93301      5.58019     10.60096        -0.000096      0.000010     -0.006479
     -1.93302      3.34813      7.36931        -0.000124     -0.000085      0.003095
      0.00000      4.46410      4.15660        -0.000043      0.000496      0.208124
      1.93301      3.34808      2.57840         0.000192      0.000416     -0.218116
[...]
     -0.00016      6.69632     12.14001        -0.000063      0.000037      0.010992
     -0.00001      8.92829      5.77161         0.000069      0.000100     -0.016895
      1.93307      7.81226      8.96659        -0.000107      0.000147      0.012725
     -0.00006      8.92831      1.00000         0.000024      0.000048     -0.039252
      0.00001      8.92828     10.60096        -0.000057      0.000079     -0.006479
      0.00002      6.69621      7.36930         0.000038     -0.000022      0.003219
      1.93307      7.81228      4.15660        -0.000452     -0.000211      0.208124
      3.86609      6.69626      2.57840        -0.000264     -0.000375     -0.218116
      3.86612      6.69633     12.14001         0.000021      0.000007      0.011065
      3.86609      8.92832      5.77164        -0.000080     -0.000026     -0.016830
      5.79909      7.81225      8.96661         0.000202      0.000307      0.012801
      3.86609      8.92831      1.00000        -0.000033      0.000014     -0.039272
      3.86605      8.92829     10.60099         0.000212      0.000228     -0.006400
      3.86607      6.69621      7.36929         0.000009     -0.000020      0.002997
      5.79910      7.81228      4.15660        -0.000032     -0.000164      0.208314
    total drift:                                0.000001     -0.000001      0.000732

  FREE ENERGIE OF THE ION-ELECTRON SYSTEM (eV)
  free  energy   TOTEN  =      -694.40294622 eV

  energy  without entropy=     -694.40294622  energy(sigma->0) =     -694.40294622

 d Force = 0.1257971E-02[-0.756E-05, 0.252E-02]  d Energy = 0.1261674E-02-0.370E-05
 d Force =-0.6605967E+02[-0.660E+02,-0.661E+02]  d Ewald  =-0.6605968E+02 0.101E-04

 reached required accuracy - stopping structural energy minimisation